%
% Generated Sudoku 25x25
% Density approximation: 0.30
%
x = array2d(1..n, 1..n, [
   _,   _,   _,   _,  18,   _,   _,   _,   7,   _,   _,   _,   _,   _,   _,   _,   _,   9,   _,   6,  12,   _,   _,   _,   _,
   _,   _,   _,   _,   _,   _,   _,   _,   _,   _,   6,   _,   _,  17,   _,  18,   _,   _,   2,   _,   7,   _,   4,   _,   5,
   _,   _,  10,   _,   5,   _,   _,   6,   _,  11,  14,   _,   _,   _,   _,   _,   _,   1,   _,   _,   _,   _,   _,   _,   _,
   9,   _,   _,   _,   7,   _,   _,   _,   _,   _,   _,   _,   _,   _,   _,   8,   _,  21,   _,   _,   _,   _,   _,   2,   _,
   _,   _,   _,   _,  21,   _,  14,   2,  18,  19,   _,   _,  24,   7,   _,   _,  25,   _,   _,  15,   _,   3,   _,   _,   _,
   _,   _,   _,   _,   _,   _,  17,   _,   _,  25,   _,  24,   9,   _,   _,   7,   _,   _,   _,   _,   _,   _,   _,   _,   _,
  18,   6,   _,   _,   _,   _,   _,   _,   _,   _,   _,   _,   _,   _,   _,  19,   _,   _,  22,   _,   _,   _,  24,   _,   _,
   _,   3,   _,   _,   _,   _,   9,   _,   6,  24,  15,   _,   5,   _,   _,   _,   _,   _,   _,   _,  16,   _,   _,   _,   _,
  17,   _,   _,   _,   _,   _,   _,   _,   _,   4,   _,   _,  16,   _,   _,   _,   _,   _,   _,   _,   _,   _,   1,   _,   _,
   _,  19,   _,   _,   _,   5,   _,   _,   _,  22,   _,   _,   _,  21,   _,   _,   _,   _,   _,  17,   9,   _,   _,  14,  13,
   _,   _,   _,   _,   _,   2,   _,   4,   _,   _,   _,  18,   _,   _,  15,  14,   _,  17,   _,  10,   _,   _,   _,   8,   3,
  24,   _,   _,   _,   _,   _,  25,  19,   _,   _,   _,   _,   _,   _,   6,   _,   _,   _,  16,   _,   _,   _,  22,   _,   _,
   _,   _,   _,   _,   _,   _,  11,  20,   1,   _,   _,  13,   8,   _,   _,  24,   _,   _,   _,   _,   _,  12,   _,   _,   _,
   _,   _,   _,   _,   _,   _,  18,  24,   9,  14,   _,   _,   _,   _,   3,  20,  12,   _,   8,   5,   _,   _,   _,  13,   _,
   _,  14,   _,   8,   3,  23,  12,   _,   _,  13,   _,   _,   _,  24,   _,   1,   _,  19,   _,   _,  11,   _,   _,   _,   _,
   _,   _,  11,   _,  20,  14,   _,   _,  12,   _,   _,   _,  13,   _,   _,   _,   _,   _,   _,   _,   _,   _,   _,  24,   1,
  10,   _,   _,   _,  24,   _,   7,   _,   _,  21,  12,   _,   _,   _,   _,   6,   _,   _,   _,  25,   _,   _,   8,   _,   _,
  23,   _,   5,   _,   8,   _,   _,   _,  22,   6,   _,  25,   _,   _,  24,  13,   _,   _,   _,   _,   _,   _,  14,   9,   _,
   _,   _,   _,   _,   _,  20,   _,  25,   _,  17,   7,   _,   _,   6,   5,   _,   _,  18,  21,   8,   _,   _,  16,   _,   _,
  13,   7,   _,   _,  19,   _,   8,   _,   2,   _,   _,   _,  14,   _,   _,   _,   _,   _,   _,   _,   _,   _,  12,   _,  15,
   _,   _,   _,   _,   _,  12,  10,   _,   8,   7,   _,  14,   _,   _,  17,   _,   4,   _,   _,   3,  20,   _,   _,  25,   _,
   _,   _,   _,   _,   _,   _,   _,   _,   _,   _,   3,   _,   _,   _,   7,   _,   _,  24,   _,   1,   _,   _,   _,   _,   _,
   _,   _,  18,   _,   _,   _,  23,  22,   _,   1,  16,   8,   _,   _,   _,   _,   9,   7,  13,   _,   _,   _,   _,   6,   4,
   _,  21,   _,   _,  10,   _,  13,   _,  19,   _,   _,   _,   _,   _,   _,  11,   _,   _,   _,  18,  14,   1,  17,   _,   _,
  11,   _,   3,   _,   _,   _,  24,   _,   _,   _,  13,   _,   _,   _,  19,   2,   _,   _,  14,   _,   _,   _,   _,   _,   _
]);

n = 25;
